# Objective value = 3.0949192706497774e+02
x[0] 0
x[1] 0
x[2] 1
x[3] 1
x[4] 0
x[5] 1
x[6] 0
x[7] 0
x[8] 0
x[9] 0
x[10] 0
x[11] 1
x[12] 0
x[13] 0
x[14] 1
x[15] 0
x[16] 0
x[17] 0
x[18] 1
x[19] 1
x[20] 0
x[21] 0
x[22] 1
x[23] 0
x[24] 0
x[25] 0
x[26] 1
x[27] 1
x[28] 0
x[29] 0
x[30] 0
x[31] 1
x[32] 1
x[33] 0
x[34] 0
x[35] 0
x[36] 0
x[37] 0
x[38] 1
x[39] 0
x[40] 1
x[41] 1
x[42] 1
x[43] 1
x[44] 0
x[45] 0
x[46] 0
x[47] 0
x[48] 0
x[49] 0
x[50] 1
x[51] 1
x[52] 1
x[53] 0
x[54] 0
x[55] 0
x[56] 0
x[57] 1
x[58] 0
x[59] 1
x[60] 1
x[61] 1
x[62] 1
x[63] 0
x[64] 0
x[65] 0
x[66] 0
x[67] 1
x[68] 1
x[69] 0
x[70] 0
x[71] 1
x[72] 0
x[73] 1
x[74] 1
x[75] 1
x[76] 1
x[77] 0
x[78] 1
x[79] 0
x[80] 0
x[81] 0
x[82] 0
x[83] 1
x[84] 0
x[85] 0
x[86] 1
x[87] 1
x[88] 1
x[89] 0
x[90] 1
x[91] 1
x[92] 0
x[93] 1
x[94] 0
x[95] 0
x[96] 1
x[97] 1
x[98] 0
x[99] 0
x[100] 1
x[101] 0
x[102] 1
x[103] 1
x[104] 0
x[105] 0
x[106] 0
x[107] 1
x[108] 1
x[109] 0
x[110] 1
x[111] 1
x[112] 1
x[113] 1
x[114] 1
x[115] 0
x[116] 0
x[117] 0
x[118] 0
x[119] 0
x[120] 1
x[121] 0
x[122] 0
x[123] 1
x[124] 1
x[125] 0
x[126] 1
x[127] 0
x[128] 1
x[129] 1
x[130] 0
x[131] 0
x[132] 0
x[133] 1
x[134] 1
x[135] 1
x[136] 1
x[137] 0
x[138] 0
x[139] 1
x[140] 0
x[141] 1
x[142] 1
x[143] 0
x[144] 0
x[145] 1
x[146] 0
x[147] 0
x[148] 0
x[149] 1
x[150] 1
x[151] 0
x[152] 1
x[153] 0
x[154] 1
x[155] 0
x[156] 1
x[157] 1
x[158] 0
x[159] 1
x[160] 1
x[161] 1
x[162] 0
x[163] 1
x[164] 1
x[165] 1
x[166] 0
x[167] 0
x[168] 0
x[169] 1
x[170] 0
x[171] 1
x[172] 1
x[173] 0
x[174] 0
x[175] 1
x[176] 0
x[177] 0
x[178] 0
x[179] 1
x[180] 1
x[181] 1
x[182] 0
x[183] 0
x[184] 1
x[185] 1
x[186] 0
x[187] 1
x[188] 1
x[189] 0
x[190] 1
x[191] 1
x[192] 0
x[193] 1
x[194] 0
x[195] 1
x[196] 1
x[197] 0
x[198] 1
x[199] 0
x[200] 0
x[201] 1
x[202] 0
x[203] 1
x[204] 0
x[205] 0
x[206] 0
x[207] 0
x[208] 1
x[209] 0
x[210] 1
x[211] 1
x[212] 1
x[213] 0
x[214] 0
x[215] 1
x[216] 0
x[217] 0
x[218] 0
x[219] 1
x[220] 0
x[221] 1
x[222] 1
x[223] 0
x[224] 0
x[225] 0
x[226] 1
x[227] 0
x[228] 1
x[229] 1
x[230] 1
x[231] 1
x[232] 1
x[233] 0
x[234] 0
x[235] 1
x[236] 1
x[237] 0
x[238] 0
x[239] 1
x[240] 1
x[241] 0
x[242] 0
x[243] 1
x[244] 1
x[245] 0
x[246] 1
x[247] 0
x[248] 1
x[249] 0
x[250] 1
x[251] 1
x[252] 0
x[253] 1
x[254] 1
x[255] 1
x[256] 0
x[257] 1
x[258] 0
x[259] 1
x[260] 0
x[261] 1
x[262] 0
x[263] 1
x[264] 0
x[265] 1
x[266] 1
x[267] 0
x[268] 0
x[269] 1
x[270] 1
x[271] 1
x[272] 1
x[273] 1
x[274] 0
x[275] 0
x[276] 1
x[277] 0
x[278] 1
x[279] 1
x[280] 1
x[281] 1
x[282] 1
x[283] 0
x[284] 1
x[285] 1
x[286] 1
x[287] 0
x[288] 1
x[289] 0
x[290] 0
x[291] 1
x[292] 0
x[293] 0
x[294] 0
x[295] 1
x[296] 1
x[297] 0
x[298] 0
x[299] 1
x[300] 0
x[301] 0
x[302] 0
x[303] 1
x[304] 1
x[305] 1
x[306] 1
x[307] 1
x[308] 1
x[309] 1
x[310] 0
x[311] 1
x[312] 1
x[313] 0
x[314] 1
x[315] 0
x[316] 1
x[317] 1
x[318] 0
x[319] 1
x[320] 1
x[321] 0
x[322] 1
x[323] 0
x[324] 0
x[325] 0
x[326] 0
x[327] 0
x[328] 1
x[329] 0
x[330] 1
x[331] 1
x[332] 1
x[333] 1
x[334] 1
x[335] 0
x[336] 1
x[337] 0
x[338] 1
x[339] 0
x[340] 0
x[341] 0
x[342] 0
x[343] 0
x[344] 1
x[345] 0
x[346] 1
x[347] 0
x[348] 0
x[349] 1
x[350] 0
x[351] 1
x[352] 1
x[353] 0
x[354] 0
x[355] 1
x[356] 1
x[357] 1
x[358] 0
x[359] 1
x[360] 1
x[361] 0
x[362] 0
x[363] 0
x[364] 0
x[365] 0
x[366] 0
x[367] 0
x[368] 1
x[369] 0
x[370] 0
x[371] 1
x[372] 0
x[373] 0
x[374] 0
x[375] 1
x[376] 0
x[377] 0
x[378] 0
x[379] 1
x[380] 0
x[381] 0
x[382] 0
x[383] 0
x[384] 1
x[385] 1
x[386] 1
x[387] 0
x[388] 0
x[389] 0
x[390] 1
x[391] 0
x[392] 1
x[393] 0
x[394] 0
x[395] 1
x[396] 0
x[397] 1
x[398] 1
x[399] 1
x[400] 1
x[401] 0
x[402] 1
x[403] 1
x[404] 1
x[405] 1
x[406] 1
x[407] 0
x[408] 0
x[409] 1
x[410] 0
x[411] 1
x[412] 1
x[413] 1
x[414] 0
x[415] 0
x[416] 1
x[417] 1
x[418] 0
x[419] 0
x[420] 1
x[421] 0
x[422] 1
x[423] 1
x[424] 1
x[425] 1
x[426] 1
x[427] 1
x[428] 0
x[429] 0
x[430] 0
x[431] 0
x[432] 1
x[433] 1
x[434] 1
x[435] 0
x[436] 0
x[437] 1
x[438] 0
x[439] 0
x[440] 1
x[441] 1
x[442] 1
x[443] 0
x[444] 1
x[445] 0
x[446] 1
x[447] 0
x[448] 1
x[449] 1
x[450] 1
x[451] 0
x[452] 1
x[453] 0
x[454] 1
x[455] 1
x[456] 1
x[457] 1
x[458] 1
x[459] 0
x[460] 0
x[461] 1
x[462] 1
x[463] 1
x[464] 0
x[465] 0
x[466] 1
x[467] 1
x[468] 0
x[469] 0
x[470] 0
x[471] 0
x[472] 1
x[473] 7.0853680387336949e-07
x[474] 0
x[475] 0
x[476] 1
x[477] 1
x[478] 0
x[479] 1
x[480] 1
x[481] 1
x[482] 0
x[483] 0
x[484] 1
x[485] 1
x[486] 0
x[487] 0
x[488] 1
x[489] 1
x[490] 0
x[491] 1
x[492] 0
x[493] 0
x[494] 1
x[495] 0
x[496] 0
x[497] 1
x[498] 0
x[499] 1
x[500] 1
x[501] 0
x[502] 0
x[503] 0
x[504] 0
x[505] 0
x[506] 1
x[507] 1
x[508] 0
x[509] 1
x[510] 0
x[511] 1
x[512] 1
x[513] 0
x[514] 0
x[515] 0
x[516] 0
x[517] 1
x[518] 0
x[519] 0
x[520] 1
x[521] 0
x[522] 1
x[523] 0
x[524] 1
x[525] 0
x[526] 1
x[527] 0
x[528] 0
x[529] 1
x[530] 1
x[531] 1
x[532] 0
x[533] 1
x[534] 0
x[535] 1
x[536] 1
x[537] 0
x[538] 1
x[539] 1
x[540] 1
x[541] 0
x[542] 1
x[543] 1
x[544] 0
x[545] 1
x[546] 1
x[547] 1
x[548] 0
x[549] 0
x[550] 0
x[551] 0
x[552] 0
x[553] 0
x[554] 0
x[555] 0
x[556] 0
x[557] 0
x[558] 1
x[559] 1
x[560] 1
x[561] 1
x[562] 1
x[563] 1
x[564] 1
x[565] 0
x[566] 1
x[567] 1
x[568] 0
x[569] 1
x[570] 1
x[571] 0
x[572] 0
x[573] 0
x[574] 1
x[575] 1
x[576] 1
x[577] 0
x[578] 1
x[579] 0
x[580] 1
x[581] 1
x[582] 0
x[583] 0
x[584] 1
x[585] 0
x[586] 1
x[587] 0
x[588] 1
x[589] 1
x[590] 0
x[591] 0
x[592] 1
x[593] 1
x[594] 0
x[595] 1
x[596] 1
x[597] 0
x[598] 0
x[599] 1
x[600] 0
x[601] 0
x[602] 1
x[603] 1
x[604] 0
x[605] 0
x[606] 1
x[607] 1
x[608] 1
x[609] 1
x[610] 1
x[611] 0
x[612] 0
x[613] 0
x[614] 0
x[615] 1
x[616] 1
x[617] 1
x[618] 0
x[619] 0
x[620] 0
x[621] 0
x[622] 0
x[623] 0
x[624] 1
x[625] 0
x[626] 0
x[627] 1
x[628] 0
x[629] 0
x[630] 1
x[631] 1
x[632] 0
x[633] 1
x[634] 1
x[635] 0
x[636] 1
x[637] 1
x[638] 1
x[639] 1
x[640] 1
x[641] 1
x[642] 1
x[643] 0
x[644] 1
x[645] 0
x[646] 1
x[647] 1
x[648] 1
x[649] 1
x[650] 0
x[651] 1
x[652] 1
x[653] 1
x[654] 1
x[655] 1
x[656] 1
x[657] 1
x[658] 1
x[659] 0
x[660] 0
x[661] 1
x[662] 1
x[663] 1
x[664] 1
x[665] 0
x[666] 0
x[667] 0
x[668] 1
x[669] 1
x[670] 0
x[671] 1
x[672] 0
x[673] 1
x[674] 1
x[675] 0
x[676] 1
x[677] 1
x[678] 1
x[679] 1
x[680] 1
x[681] 1
x[682] 0
x[683] 0
x[684] 0
x[685] 1
x[686] 1
x[687] 0
x[688] 1
x[689] 0
x[690] 1
x[691] 0
x[692] 1
x[693] 0
x[694] 0
x[695] 1
x[696] 0
x[697] 1
x[698] 1
x[699] 1
x[700] 0
x[701] 0
x[702] 1
x[703] 0
x[704] 0
x[705] 0
x[706] 0
x[707] 1
x[708] 1
x[709] 1
x[710] 1
x[711] 0
x[712] 0
x[713] 0
x[714] 0
x[715] 0
x[716] 0
x[717] 1
x[718] 0
x[719] 0
x[720] 1
x[721] 1
x[722] 0
x[723] 0
x[724] 0
x[725] 1
x[726] 1
x[727] 0
x[728] 1
x[729] 1
x[730] 1
x[731] 1
x[732] 1
x[733] 1
x[734] 1
x[735] 1
x[736] 0
x[737] 0
x[738] 1
x[739] 0
x[740] 0
x[741] 0
x[742] 1
x[743] 0
x[744] 0
x[745] 0
x[746] 0
x[747] 1
x[748] 0
x[749] 0
x[750] 1
x[751] 0
x[752] 0
x[753] 1
x[754] 1
x[755] 1
x[756] 0
x[757] 1
x[758] 1
x[759] 0
x[760] 1
x[761] 0
x[762] 0
x[763] 1
x[764] 0
x[765] 0
x[766] 1
x[767] 0
x[768] 0
x[769] 1
x[770] 0
x[771] 1
x[772] 1
x[773] 0
x[774] 1
x[775] 1
x[776] 0
x[777] 0
x[778] 0
x[779] 1
x[780] 1
x[781] 0
x[782] 0
x[783] 1
x[784] 0
x[785] 0
x[786] 0
x[787] 1
x[788] 1
x[789] 0
x[790] 0
x[791] 0
x[792] 0
x[793] 0
x[794] 0
x[795] 1
x[796] 0
x[797] 1
x[798] 1
x[799] 0
x[800] 1
x[801] 0
x[802] 0
x[803] 0
x[804] 0
x[805] 0
x[806] 1
x[807] 1
x[808] 1
x[809] 1
x[810] 0
x[811] 1
x[812] 0
x[813] 1
x[814] 1
x[815] 0
x[816] 0
x[817] 1
x[818] 0
x[819] 1
x[820] 1
x[821] 1
x[822] 1
x[823] 0
x[824] 1
x[825] 0
x[826] 1
x[827] 0
x[828] 0
x[829] 0
x[830] 0
x[831] 1
x[832] 0
x[833] 0
x[834] 0
x[835] 1
x[836] 0
x[837] 0
x[838] 1
x[839] 1
x[840] 1
x[841] 1
x[842] 0
x[843] 1
x[844] 0
x[845] 1
x[846] 1
x[847] 0
x[848] 1
x[849] 0
x[850] 0
x[851] 1
x[852] 1
x[853] 1
x[854] 1
x[855] 1
x[856] 0
x[857] 0
x[858] 0
x[859] 0
x[860] 1
x[861] 1
x[862] 0
x[863] 0
x[864] 0
x[865] 0
x[866] 0
x[867] 1
x[868] 1
x[869] 0
x[870] 1
x[871] 0
x[872] 1
x[873] 0
x[874] 1
x[875] 1
x[876] 0
x[877] 0
x[878] 1
x[879] 0
x[880] 1
x[881] 0
x[882] 0
x[883] 1
x[884] 0
x[885] 0
x[886] 0
x[887] 0
x[888] 0
x[889] 1
x[890] 0
x[891] 0
x[892] 0
x[893] 0
x[894] 1
x[895] 1
x[896] 0
x[897] 1
x[898] 1
x[899] 1
x[900] 0
x[901] 0
x[902] 1
x[903] 1
x[904] 0
x[905] 0
x[906] 1
x[907] 1
x[908] 1
x[909] 1
x[910] 0
x[911] 0
x[912] 0
x[913] 0
x[914] 1
x[915] 0
x[916] 1
x[917] 1
x[918] 0
x[919] 1
x[920] 0
x[921] 1
x[922] 0
x[923] 0
x[924] 0
x[925] 0
x[926] 0
x[927] 0
x[928] 1
x[929] 0
x[930] 0
x[931] 1
x[932] 1
x[933] 0
x[934] 0
x[935] 1
x[936] 0
x[937] 0
x[938] 0
x[939] 1
x[940] 0
x[941] 0
x[942] 0
x[943] 0
x[944] 1
x[945] 1
x[946] 0
x[947] 1
x[948] 0
x[949] 1
x[950] 1
x[951] 1
x[952] 0
x[953] 0
x[954] 1
x[955] 0
x[956] 1
x[957] 1
x[958] 0
x[959] 0
x[960] 1
x[961] 1
x[962] 0
x[963] 1
x[964] 0
x[965] 1
x[966] 1
x[967] 1
x[968] 1
x[969] 1
x[970] 0
x[971] 0
x[972] 1
x[973] 0
x[974] 0
x[975] 0
x[976] 0
x[977] 0
x[978] 0
x[979] 1
x[980] 0
x[981] 1
x[982] 0
x[983] 1
x[984] 0
x[985] 1
x[986] 0
x[987] 0
x[988] 0
x[989] 0
x[990] 0
x[991] 1
x[992] 0
x[993] 1
x[994] 0
x[995] 0
x[996] 1
x[997] 0
x[998] 1
x[999] 1
